
  22    4
  10   10   10   10

   0   0   0   0   0   3 2 3 4 
   1  10  10  10  10   3 16 7 5 
   8  10  10  10  10   4 16 10 7 6 
   3  10  10  10  10   2 8 5 
  10  10  10  10  10   2 10 6 
   5  10  10  10  10   2 12 9 
   7  10  10  10  10   2 12 9 
   3  10  10  10  10   5 21 15 14 12 11 
   5  10  10  10  10   4 21 15 14 11 
   7  10  10  10  10   3 21 20 17 
   4  10  10  10  10   1 13 
   2  10  10  10  10   1 13 
   9  10  10  10  10   2 20 17 
   5  10  10  10  10   2 20 17 
   5  10  10  10  10   2 20 17 
   8  10  10  10  10   2 20 17 
   5  10  10  10  10   2 19 18 
   7  10  10  10  10   1 22
   6  10  10  10  10   1 22
  10  10  10  10  10   1 22
   5  10  10  10  10   1 22
   0   0   0   0   0   0 
